NAME: instance_2876
TYPE: TSP
DIMENSION: 20
EDGE_WEIGHT_TYPE: EUC_2D
NODE_COORD_SECTION
0 91.16 77.28
1 51.39 22.75
2 25.21 68.04
3 29.12 25.23
4 71.41 77.58
5 74.17 0.67
6 71.63 40.17
7 68.02 82.28
8 97.23 61.43
9 61.07 94.45
10 73.09 88.36
11 6.33 72.11
12 26.03 67.36
13 25.93 45.26
14 93.53 74.23
15 68.62 1.65
16 30.46 15.23
17 47.85 5.12
18 93.37 40.99
19 25.38 27.44
EOF
